125 10
5
79 41 89 22 89 89 19 62 29 9 11 99 26 82 72 1 99 46 55 10 74 24 95 43 91 13 78 55 5 23 42 49 75 56 43 24 81 21 94 18 63 89 29 37 49 40 95 11 56 63 14 32 65 65 36 25 76 72 50 12 24 19 67 10 7 52 92 14 72 46 99 35 81 23 61 53 12 45 7 47 39 94 19 50 65 43 82 78 89 56 72 50 34 90 11 11 36 49 76 81 95 74 48 74 11 93 34 74 76 39 10 2 75 46 51 41 91 3 16 63 64 13 38 4 3
756 978 752 973 814 690 903 1101 752 1130
0 0 0 0 0 0 0 0 0 0 0 0 0 18 0 0 0 0 41 0 0 0 0 0 0 0 0 0 0 58 0 0 0 0 36 0 0 63 0 0 0 0 0 93 0 32 0 0 0 0 0 58 0 0 0 0 92 0 0 0 42 0 0 0 0 0 0 0 0 0 0 0 0 13 0 0 0 79 0 0 0 0 0 0 0 26 0 0 0 0 0 99 0 0 0 0 0 0 0 0 0 0 87 0 0 0 48 0 0 0 0 0 0 0 0 0 0 0 0 0 0 0 0 0 0
0 89 0 0 6 0 0 0 0 66 0 16 56 0 0 4 0 0 0 0 25 0 97 0 0 0 0 0 0 51 0 0 0 0 0 0 0 0 0 0 0 0 0 0 0 0 0 0 0 0 0 0 0 0 0 9 0 0 0 83 0 18 0 0 0 0 0 0 0 0 0 0 0 0 0 0 0 0 0 98 0 0 33 0 0 0 0 0 0 0 0 0 0 94 0 0 0 0 0 0 0 0 0 0 0 0 0 91 0 0 0 0 0 0 8 0 0 0 0 0 89 0 98 0 96
0 0 0 32 0 0 0 59 0 0 0 0 0 0 0 0 0 0 0 0 0 79 0 62 0 0 0 0 0 0 0 0 0 0 0 0 0 0 0 0 0 0 0 0 0 0 0 0 0 0 0 0 0 0 0 0 38 0 0 0 0 0 0 0 0 0 0 0 0 0 0 0 0 0 0 0 0 0 72 0 90 27 0 0 0 0 0 34 79 0 0 0 0 0 0 0 0 6 0 0 0 0 92 0 0 0 0 0 31 0 0 8 0 0 0 86 16 25 0 0 0 0 0 0 0
0 0 62 72 0 0 0 47 0 0 0 0 57 0 0 0 0 0 0 0 4 0 0 0 0 0 0 69 0 0 0 0 55 0 0 0 0 78 7 0 0 0 81 0 0 0 0 0 0 0 0 0 0 0 73 0 0 0 0 0 0 0 48 82 0 0 71 90 0 0 0 0 0 0 0 0 42 0 0 0 52 0 0 0 2 0 0 0 0 0 0 0 0 0 0 0 0 89 0 0 0 0 0 28 72 18 0 0 0 0 0 0 0 0 83 45 0 0 0 0 0 0 0 0 0
0 0 50 0 0 0 0 0 12 15 0 0 0 0 0 0 0 6 0 0 0 0 0 51 2 0 0 9 0 0 0 65 43 0 0 0 0 0 0 0 0 0 0 0 85 0 0 0 0 0 0 15 0 0 59 0 0 0 0 62 0 0 0 0 0 0 0 0 5 0 0 5 0 76 0 0 0 7 0 0 29 0 0 0 0 0 0 0 0 73 0 0 0 0 0 17 57 0 0 0 78 0 0 0 0 0 0 0 0 22 98 0 0 27 0 0 0 0 0 0 34 0 0 0 0
0 0 68 0 0 0 0 0 0 0 0 29 0 0 0 0 0 0 0 0 0 0 0 0 0 0 0 60 0 0 0 0 0 29 0 0 0 0 0 0 0 0 0 0 0 0 0 0 0 0 0 0 6 0 0 41 0 0 0 0 0 0 0 0 33 0 0 48 0 0 96 0 0 21 0 8 0 0 0 0 0 0 0 5 5 0 35 0 0 0 0 0 4 0 0 0 0 0 0 0 0 0 0 26 0 0 98 0 20 0 0 0 0 0 0 68 0 0 0 0 0 0 0 0 0
0 0 0 89 0 0 0 0 23 0 0 0 0 29 2 0 71 15 0 0 0 7 0 0 0 55 0 0 77 55 0 0 0 0 0 0 0 0 0 0 0 0 0 0 0 0 0 0 0 0 0 0 0 0 0 0 0 0 0 0 0 0 0 0 0 0 0 0 0 85 0 0 0 0 0 76 0 0 0 0 34 1 0 0 0 0 0 44 40 0 0 0 0 0 0 31 0 64 0 0 0 0 0 0 0 0 80 0 0 0 67 0 0 0 0 0 0 82 0 0 15 15 0 0 0
0 0 0 0 0 13 18 0 78 0 0 0 0 0 0 0 0 0 0 29 95 0 0 0 0 49 0 87 57 80 41 0 0 0 0 0 0 64 6 0 0 0 0 0 0 0 0 0 0 0 0 0 0 48 10 0 0 0 0 0 29 0 0 66 0 0 0 0 0 87 0 0 40 0 0 0 15 17 0 17 3 0 0 0 0 0 0 0 0 0 0 32 0 0 0 0 0 0 0 0 8 0 0 0 0 0 58 81 0 0 0 0 0 0 0 0 75 0 0 0 84 0 0 0 0
0 0 68 0 0 0 0 0 0 37 0 0 48 0 0 0 9 0 0 0 0 0 0 0 0 0 0 0 0 0 0 0 0 0 0 0 29 0 3 33 0 0 0 0 39 0 0 0 61 0 24 0 0 0 0 0 0 0 0 76 0 0 0 0 0 0 0 0 0 0 0 0 0 0 0 0 0 77 0 0 0 0 0 0 0 0 15 0 29 0 60 0 82 0 0 0 0 19 0 0 0 0 0 0 0 0 81 0 0 0 0 0 0 27 0 0 0 0 0 30 7 0 0 0 0
0 0 0 0 0 0 24 0 0 16 0 0 80 46 96 0 84 0 15 44 83 0 0 0 0 0 0 0 0 0 0 0 0 0 0 0 0 0 0 0 0 0 99 0 0 0 69 0 0 0 1 0 0 0 0 50 0 0 0 19 0 0 0 43 0 8 0 0 0 0 0 98 0 85 24 0 0 75 0 0 0 0 0 0 21 0 0 0 27 0 15 71 0 0 97 0 0 0 0 0 0 0 0 0 0 0 0 0 0 0 0 97 0 0 0 0 0 0 0 0 0 0 0 0 0
0 0 0 0 0 0 0 0 0 0 0 0 0 17 0 0 0 0 29 0 0 0 0 0 0 0 0 0 0 6 0 0 0 0 28 0 0 10 0 0 0 0 0 5 0 4 0 0 0 0 0 36 0 0 0 0 84 0 0 0 22 0 0 0 0 0 0 0 0 0 0 0 0 5 0 0 0 10 0 0 0 0 0 0 0 11 0 0 0 0 0 59 0 0 0 0 0 0 0 0 0 0 30 0 0 0 14 0 0 0 0 0 0 0 0 0 0 0 0 0 0 0 0 0 0
0 48 0 0 0 0 0 0 0 56 0 1 40 0 0 3 0 0 0 0 5 0 15 0 0 0 0 0 0 41 0 0 0 0 0 0 0 0 0 0 0 0 0 0 0 0 0 0 0 0 0 0 0 0 0 4 0 0 0 32 0 14 0 0 0 0 0 0 0 0 0 0 0 0 0 0 0 0 0 34 0 0 29 0 0 0 0 0 0 0 0 0 0 51 0 0 0 0 0 0 0 0 0 0 0 0 0 89 0 0 0 0 0 0 5 0 0 0 0 0 4 0 64 0 26
0 0 0 20 0 0 0 5 0 0 0 0 0 0 0 0 0 0 0 0 0 17 0 4 0 0 0 0 0 0 0 0 0 0 0 0 0 0 0 0 0 0 0 0 0 0 0 0 0 0 0 0 0 0 0 0 32 0 0 0 0 0 0 0 0 0 0 0 0 0 0 0 0 0 0 0 0 0 31 0 73 12 0 0 0 0 0 32 14 0 0 0 0 0 0 0 0 5 0 0 0 0 87 0 0 0 0 0 0 0 0 0 0 0 0 28 11 1 0 0 0 0 0 0 0
0 0 50 46 0 0 0 44 0 0 0 0 8 0 0 0 0 0 0 0 1 0 0 0 0 0 0 2 0 0 0 0 17 0 0 0 0 15 3 0 0 0 22 0 0 0 0 0 0 0 0 0 0 0 7 0 0 0 0 0 0 0 26 4 0 0 26 60 0 0 0 0 0 0 0 0 19 0 0 0 14 0 0 0 0 0 0 0 0 0 0 0 0 0 0 0 0 36 0 0 0 0 0 6 20 12 0 0 0 0 0 0 0 0 3 18 0 0 0 0 0 0 0 0 0
0 0 13 0 0 0 0 0 3 1 0 0 0 0 0 0 0 1 0 0 0 0 0 18 0 0 0 7 0 0 0 45 16 0 0 0 0 0 0 0 0 0 0 0 65 0 0 0 0 0 0 8 0 0 16 0 0 0 0 45 0 0 0 0 0 0 0 0 3 0 0 2 0 24 0 0 0 0 0 0 12 0 0 0 0 0 0 0 0 4 0 0 0 0 0 16 51 0 0 0 46 0 0 0 0 0 0 0 0 8 14 0 0 17 0 0 0 0 0 0 10 0 0 0 0
0 0 27 0 0 0 0 0 0 0 0 14 0 0 0 0 0 0 0 0 0 0 0 0 0 0 0 38 0 0 0 0 0 13 0 0 0 0 0 0 0 0 0 0 0 0 0 0 0 0 0 0 4 0 0 22 0 0 0 0 0 0 0 0 15 0 0 29 0 0 78 0 0 10 0 1 0 0 0 0 0 0 0 3 3 0 22 0 0 0 0 0 2 0 0 0 0 0 0 0 0 0 0 11 0 0 84 0 2 0 0 0 0 0 0 25 0 0 0 0 0 0 0 0 0
0 0 0 0 0 0 0 0 14 0 0 0 0 6 0 0 62 14 0 0 0 3 0 0 0 25 0 0 12 37 0 0 0 0 0 0 0 0 0 0 0 0 0 0 0 0 0 0 0 0 0 0 0 0 0 0 0 0 0 0 0 0 0 0 0 0 0 0 0 83 0 0 0 0 0 31 0 0 0 0 28 0 0 0 0 0 0 19 25 0 0 0 0 0 0 15 0 29 0 0 0 0 0 0 0 0 28 0 0 0 52 0 0 0 0 0 0 42 0 0 10 4 0 0 0
0 0 0 0 0 1 0 0 39 0 0 0 0 0 0 0 0 0 0 6 65 0 0 0 0 48 0 86 45 49 22 0 0 0 0 0 0 39 4 0 0 0 0 0 0 0 0 0 0 0 0 0 0 1 5 0 0 0 0 0 2 0 0 32 0 0 0 0 0 50 0 0 6 0 0 0 6 3 0 4 2 0 0 0 0 0 0 0 0 0 0 18 0 0 0 0 0 0 0 0 6 0 0 0 0 0 25 79 0 0 0 0 0 0 0 0 27 0 0 0 1 0 0 0 0
0 0 9 0 0 0 0 0 0 17 0 0 11 0 0 0 0 0 0 0 0 0 0 0 0 0 0 0 0 0 0 0 0 0 0 0 23 0 1 20 0 0 0 0 19 0 0 0 47 0 5 0 0 0 0 0 0 0 0 62 0 0 0 0 0 0 0 0 0 0 0 0 0 0 0 0 0 68 0 0 0 0 0 0 0 0 9 0 16 0 16 0 57 0 0 0 0 5 0 0 0 0 0 0 0 0 22 0 0 0 0 0 0 3 0 0 0 0 0 8 6 0 0 0 0
0 0 0 0 0 0 9 0 0 10 0 0 11 34 91 0 49 0 7 39 58 0 0 0 0 0 0 0 0 0 0 0 0 0 0 0 0 0 0 0 0 0 5 0 0 0 12 0 0 0 0 0 0 0 0 40 0 0 0 1 0 0 0 14 0 5 0 0 0 0 0 15 0 4 22 0 0 52 0 0 0 0 0 0 2 0 0 0 7 0 13 5 0 0 39 0 0 0 0 0 0 0 0 0 0 0 0 0 0 0 0 79 0 0 0 0 0 0 0 0 0 0 0 0 0
